NAME: tsp10_5
COMMENT: 10-tsp problem (Padberg/Rinaldi)
TYPE: TSP
DIMENSION: 10
EDGE_WEIGHT_TYPE : EUC_2D
NODE_COORD_SECTION
1 32 31
2 3 35
3 27 21
4 28 26
5 13 26
6 27 24
7 14 19
8 13 5
9 34 1
10 36 31
